Route 1: 0 12 96 1 39 56 35 88 41 36 27 71 87 0
Route 2: 0 54 69 8 20 81 74 24 34 19 22 83 0
Route 3: 0 55 57 70 31 58 46 6 72 0
Route 4: 0 93 90 65 63 51 91 42 94 99 26 86 7 0
Route 5: 0 44 61 85 17 38 33 60 0
Route 6: 0 21 84 89 73 80 95 78 0
Route 7: 0 45 5 23 9 28 32 40 43 2 67 4 49 0
Route 8: 0 16 14 29 100 53 82 48 37 47 15 77 18 0
Route 9: 0 13 52 76 79 3 11 64 59 98 66 10 0
Route 10: 0 92 50 62 97 68 30 0
Route 11: 0 75 25 0
